c Generated map
c Size: 8 * 8, weights in range: 1 to 10, walls: True, with ratio 0.1
c dim 8 of 9
c
p sp 64 93
c graph contains 64 nodes and 93 arcs
c
a 1 9 10
a 9 1 10
a 1 2 3
a 2 1 3
a 2 10 9
a 10 2 9
a 2 3 6
a 3 2 6
a 3 11 5
a 11 3 5
a 3 4 7
a 4 3 7
a 4 12 10
a 12 4 10
a 4 5 1
a 5 4 1
a 7 15 6
a 15 7 6
a 7 8 3
a 8 7 3
a 8 16 1
a 16 8 1
a 9 17 8
a 17 9 8
a 9 10 10
a 10 9 10
a 10 18 4
a 18 10 4
a 10 11 3
a 11 10 3
a 11 19 3
a 19 11 3
a 11 12 8
a 12 11 8
a 12 20 1
a 20 12 1
a 15 23 5
a 23 15 5
a 15 16 4
a 16 15 4
a 16 24 7
a 24 16 7
a 17 18 2
a 18 17 2
a 18 19 1
a 19 18 1
a 19 27 4
a 27 19 4
a 19 20 8
a 20 19 8
a 20 28 7
a 28 20 7
a 20 21 5
a 21 20 5
a 21 29 8
a 29 21 8
a 21 22 1
a 22 21 1
a 22 30 2
a 30 22 2
a 22 23 8
a 23 22 8
a 23 24 9
a 24 23 9
a 24 32 5
a 32 24 5
a 27 35 1
a 35 27 1
a 27 28 4
a 28 27 4
a 28 36 9
a 36 28 9
a 28 29 9
a 29 28 9
a 29 37 4
a 37 29 4
a 29 30 6
a 30 29 6
a 30 38 2
a 38 30 2
a 32 40 4
a 40 32 4
a 33 41 6
a 41 33 6
a 33 34 7
a 34 33 7
a 34 42 9
a 42 34 9
a 34 35 8
a 35 34 8
a 35 43 3
a 43 35 3
a 35 36 3
a 36 35 3
a 36 44 9
a 44 36 9
a 36 37 9
a 37 36 9
a 37 45 7
a 45 37 7
a 37 38 8
a 38 37 8
a 38 46 7
a 46 38 7
a 38 39 3
a 39 38 3
a 39 47 3
a 47 39 3
a 39 40 4
a 40 39 4
a 40 48 2
a 48 40 2
a 41 49 2
a 49 41 2
a 41 42 4
a 42 41 4
a 42 50 1
a 50 42 1
a 42 43 8
a 43 42 8
a 43 51 8
a 51 43 8
a 43 44 6
a 44 43 6
a 44 52 7
a 52 44 7
a 44 45 8
a 45 44 8
a 45 53 1
a 53 45 1
a 45 46 6
a 46 45 6
a 46 54 9
a 54 46 9
a 46 47 2
a 47 46 2
a 47 55 6
a 55 47 6
a 47 48 5
a 48 47 5
a 48 56 1
a 56 48 1
a 49 57 3
a 57 49 3
a 49 50 6
a 50 49 6
a 50 58 3
a 58 50 3
a 50 51 5
a 51 50 5
a 51 59 10
a 59 51 10
a 51 52 4
a 52 51 4
a 52 60 9
a 60 52 9
a 52 53 9
a 53 52 9
a 53 61 2
a 61 53 2
a 53 54 7
a 54 53 7
a 54 62 5
a 62 54 5
a 54 55 10
a 55 54 10
a 55 63 2
a 63 55 2
a 55 56 9
a 56 55 9
a 56 64 4
a 64 56 4
a 57 58 10
a 58 57 10
a 58 59 8
a 59 58 8
a 59 60 9
a 60 59 9
a 60 61 6
a 61 60 6
a 61 62 7
a 62 61 7
a 62 63 5
a 63 62 5
a 63 64 4
a 64 63 4
